100
1000
199
199
199
199
199
198
198
198
198
197
197
196
195
194
194
194
193
193
193
193
192
191
191
191
191
191
190
190
189
189
188
188
188
187
187
186
186
186
186
185
185
183
183
182
182
181
179
178
178
177
176
175
175
175
174
173
173
173
173
173
171
170
170
169
166
166
166
166
165
165
164
163
162
161
161
161
160
159
158
158
158
158
158
156
156
156
155
155
155
154
154
154
154
153
153
152
152
150
150
150
